32	4
13	12	16	17
0	0	0	0	0	1	2
5	6	0	9	0	1	3
7	3	3	0	0	1	4
9	5	8	0	0	2	5	29
2	0	0	5	6	1	6
8	1	0	1	0	1	7
2	13	0	0	1	1	8
7	0	6	0	11	2	9	11
7	4	0	0	17	1	10
5	0	0	16	5	2	13	16
2	10	0	0	4	1	12
8	4	0	0	12	2	14	16
10	0	12	0	6	2	14	20
5	0	8	0	11	1	15
5	0	6	11	0	1	17
2	0	8	1	0	2	19	20
4	0	6	0	13	1	18
10	0	7	2	0	1	19
3	9	0	16	0	1	21
2	0	6	6	0	1	21
4	13	0	0	6	1	22
1	5	1	0	0	1	23
6	0	4	1	0	1	24
7	0	0	3	11	1	25
2	0	0	9	15	1	26
6	6	0	0	5	2	27	31
6	6	0	16	0	1	28
8	0	0	16	5	1	30
6	8	4	0	0	1	30
3	5	3	0	0	1	32
4	0	8	8	0	1	32
0	0	0	0	0	0
